
<<< setup


<<< generate

Version identifier: 22.1.1.0 | 2022-11-28 | 9160aff4d
CPXPARAM_TimeLimit                               1800
Found incumbent of value 0.000000 after 0.00 sec. (0.01 ticks)
Tried aggregator 6 times.
MIP Presolve eliminated 129 rows and 21 columns.
MIP Presolve modified 36 coefficients.
Aggregator did 84 substitutions.
Reduced MIP has 59 rows, 119 columns, and 375 nonzeros.
Reduced MIP has 119 binaries, 0 generals, 0 SOSs, and 0 indicators.
Presolve time = 0.00 sec. (1.42 ticks)
Probing time = 0.00 sec. (0.18 ticks)
Tried aggregator 3 times.
MIP Presolve eliminated 8 rows and 2 columns.
MIP Presolve modified 3 coefficients.
Aggregator did 28 substitutions.
Reduced MIP has 23 rows, 89 columns, and 255 nonzeros.
Reduced MIP has 89 binaries, 0 generals, 0 SOSs, and 0 indicators.
Presolve time = 0.00 sec. (0.42 ticks)
Probing time = 0.00 sec. (0.11 ticks)
Tried aggregator 1 time.
Detecting symmetries...
Reduced MIP has 23 rows, 89 columns, and 255 nonzeros.
Reduced MIP has 89 binaries, 0 generals, 0 SOSs, and 0 indicators.
Presolve time = 0.00 sec. (0.25 ticks)
Probing time = 0.00 sec. (0.10 ticks)
Clique table members: 23.
MIP emphasis: balance optimality and feasibility.
MIP search method: dynamic search.
Parallel mode: deterministic, using up to 8 threads.
Root relaxation solution time = 0.00 sec. (0.17 ticks)

        Nodes                                         Cuts/
   Node  Left     Objective  IInf  Best Integer    Best Bound    ItCnt     Gap

*     0+    0                            0.0000      180.0000              --- 
*     0+    0                           16.0000      180.0000              --- 
      0     0        cutoff             16.0000       16.0000       43    0.00%
      0     0        cutoff             16.0000       16.0000       43    0.00%
Elapsed time = 0.00 sec. (2.96 ticks, tree = 0.01 MB, solutions = 1)

Root node processing (before b&c):
  Real time             =    0.00 sec. (2.96 ticks)
Parallel b&c, 8 threads:
  Real time             =    0.00 sec. (0.00 ticks)
  Sync time (average)   =    0.00 sec.
  Wait time (average)   =    0.00 sec.
                          ------------
Total (root+branch&cut) =    0.00 sec. (2.96 ticks)

<<< solve


OBJECTIVE: 16

<<< post process


<<< done

